* ENCODING=ISO-8859-1
NAME          CPLEX
ROWS
 N  obj1    
 G  c1      
 G  c2      
 G  c3      
 G  c4      
 G  c5      
 G  c6      
 G  c7      
 G  c8      
 G  c9      
 G  c10     
 G  c11     
 G  c12     
 G  c13     
 G  c14     
 G  c15     
 G  c16     
 G  c17     
 G  c18     
 G  c19     
 G  c20     
 G  c21     
 G  c22     
 G  c23     
 G  c24     
 G  c25     
 G  c26     
 G  c27     
 G  c28     
 G  c29     
 G  c30     
 G  c31     
 G  c32     
 G  c33     
 G  c34     
 G  c35     
 G  c36     
 G  c37     
 G  c38     
 G  c39     
 G  c40     
 G  c41     
 G  c42     
 G  c43     
 G  c44     
 G  c45     
 G  c46     
 G  c47     
 G  c48     
 G  c49     
 G  c50     
 G  c51     
 G  c52     
 G  c53     
 G  c54     
 G  c55     
 G  c56     
 G  c57     
 G  c58     
 G  c59     
 G  c60     
 G  c61     
 G  c62     
 G  c63     
 G  c64     
 G  c65     
 G  c66     
 G  c67     
 G  c68     
 G  c69     
 G  c70     
COLUMNS
    MARK0000  'MARKER'                 'INTORG'
    x1        obj1                            1
    x1        c20                           662
    x1        c22                           884
    x1        c33                           499
    x1        c34                           906
    x1        c42                           750
    x1        c44                           923
    x1        c47                           742
    x1        c69                           962
    x2        obj1                            1
    x2        c1                            590
    x2        c15                           924
    x2        c19                           538
    x2        c26                           235
    x2        c48                           924
    x2        c50                           551
    x2        c54                           566
    x2        c61                           635
    x2        c62                           972
    x3        obj1                            1
    x3        c14                           795
    x3        c15                           340
    x3        c22                           283
    x3        c27                           727
    x3        c44                           999
    x3        c49                           759
    x3        c50                           704
    x3        c54                           938
    x3        c65                           183
    x3        c68                           807
    x4        obj1                            1
    x4        c2                            896
    x4        c18                           286
    x4        c37                           667
    x4        c39                           392
    x4        c51                           443
    x4        c55                           197
    x4        c60                           204
    x5        obj1                            1
    x5        c30                           728
    x5        c51                           485
    x5        c57                           992
    x5        c58                           884
    x5        c67                           661
    x6        obj1                            1
    x6        c22                           324
    x6        c33                           841
    x6        c57                           847
    x6        c59                           586
    x6        c67                           791
    x6        c68                           299
    x7        obj1                            1
    x7        c12                           242
    x7        c23                           389
    x7        c28                           442
    x7        c34                           453
    x7        c38                           951
    x7        c63                           330
    x7        c65                           601
    x7        c69                           381
    x7        c70                           538
    x8        obj1                            1
    x8        c27                           151
    x8        c44                           580
    x8        c45                           324
    x8        c49                           550
    x9        obj1                            1
    x9        c11                           569
    x9        c18                           697
    x9        c34                           881
    x9        c35                           164
    x9        c41                           781
    x9        c44                           602
    x9        c46                           430
    x9        c47                           859
    x9        c53                           961
    x9        c68                           414
    x9        c69                           847
    x10       obj1                            1
    x10       c2                            171
    x10       c6                            172
    x10       c7                            390
    x10       c29                           261
    x10       c33                           190
    x10       c34                           485
    x10       c48                           739
    x10       c49                           254
    x10       c52                           327
    x10       c61                           859
    x11       obj1                            1
    x11       c16                           565
    x11       c27                           510
    x11       c31                           790
    x11       c35                           189
    x11       c52                           947
    x11       c55                           712
    x11       c56                           570
    x11       c58                           454
    x11       c59                           386
    x12       obj1                            1
    x12       c9                            108
    x12       c55                           782
    x12       c59                           228
    x12       c61                           210
    x13       obj1                            1
    x13       c19                           301
    x13       c52                           503
    x13       c57                           184
    x13       c59                           928
    x13       c64                           206
    x13       c70                           484
    x14       obj1                            1
    x14       c36                           858
    x14       c42                           660
    x14       c56                           559
    x14       c60                           230
    x14       c65                           766
    x15       obj1                            1
    x15       c6                            347
    x15       c9                            204
    x15       c15                           368
    x15       c20                           974
    x15       c30                           201
    x15       c31                           775
    x15       c64                           789
    x16       obj1                            1
    x16       c14                           638
    x16       c20                           290
    x16       c21                           471
    x16       c24                           798
    x16       c26                           652
    x16       c34                           101
    x16       c35                           337
    x16       c49                           451
    x16       c58                           767
    x16       c63                           653
    x17       obj1                            1
    x17       c1                            947
    x17       c12                           566
    x17       c29                           578
    x17       c38                           481
    x17       c46                           248
    x18       obj1                            1
    x18       c3                            752
    x18       c20                           828
    x18       c21                           900
    x18       c22                           495
    x18       c35                           645
    x18       c46                           877
    x18       c54                           939
    x18       c57                           285
    x19       obj1                            1
    x19       c5                            729
    x19       c6                            768
    x19       c10                           185
    x19       c14                           434
    x19       c20                           530
    x19       c29                           211
    x19       c54                           119
    x19       c56                           123
    x19       c69                           439
    x20       obj1                            1
    x20       c17                           835
    x20       c20                           874
    x20       c26                           101
    x20       c28                           196
    x20       c43                           569
    x21       obj1                            1
    x21       c7                            294
    x21       c24                           168
    x21       c27                           341
    x21       c33                           654
    x21       c54                           942
    x21       c60                           374
    x21       c64                           797
    x21       c66                           667
    x22       obj1                            1
    x22       c3                            694
    x22       c5                            928
    x22       c14                           269
    x22       c17                           760
    x22       c23                           556
    x22       c31                           793
    x22       c44                           733
    x22       c62                           308
    x23       obj1                            1
    x23       c8                            940
    x23       c14                           753
    x23       c36                           970
    x23       c66                           819
    x23       c69                           565
    x24       obj1                            1
    x24       c15                           675
    x24       c33                           303
    x24       c37                           413
    x24       c70                           358
    x25       obj1                            1
    x25       c3                            889
    x25       c14                           646
    x25       c16                           150
    x25       c27                           296
    x25       c31                           634
    x25       c41                           637
    x25       c44                           181
    x25       c46                           495
    x25       c61                           709
    x26       obj1                            1
    x26       c17                           798
    x26       c29                           528
    x26       c32                           761
    x26       c37                           664
    x26       c40                           495
    x26       c41                           185
    x26       c43                           626
    x26       c46                           513
    x27       obj1                            1
    x27       c10                           503
    x27       c16                           843
    x27       c19                           725
    x27       c39                           337
    x27       c43                           134
    x27       c44                           858
    x27       c50                           406
    x27       c51                           958
    x27       c56                           743
    x27       c57                           826
    x28       obj1                            1
    x28       c4                            315
    x28       c11                           638
    x28       c18                           593
    x28       c36                           156
    x28       c39                           167
    x28       c49                           330
    x28       c67                           171
    x28       c69                           948
    x29       obj1                            1
    x29       c12                           740
    x29       c24                           920
    x29       c35                           704
    x29       c37                           300
    x30       obj1                            1
    x30       c29                           319
    x30       c50                           306
    x30       c51                           613
    x30       c61                           788
    x31       obj1                            1
    x31       c25                           778
    x31       c34                           852
    x31       c66                           825
    x32       obj1                            1
    x32       c1                            200
    x32       c12                           101
    x32       c13                           449
    x32       c21                           180
    x32       c25                           116
    x32       c38                           683
    x32       c42                           585
    x32       c45                           370
    x32       c51                           542
    x32       c60                           801
    x32       c62                           778
    x33       obj1                            1
    x33       c10                           539
    x33       c25                           494
    x33       c31                           879
    x33       c32                           191
    x33       c39                           877
    x33       c43                           376
    x33       c47                           318
    x34       obj1                            1
    x34       c8                            201
    x34       c11                           745
    x34       c17                           772
    x34       c19                           339
    x34       c23                           439
    x34       c25                           327
    x34       c55                           998
    x34       c61                           151
    x34       c68                           452
    x35       obj1                            1
    x35       c11                           480
    x35       c23                           546
    x35       c56                           306
    x36       obj1                            1
    x36       c19                           441
    x36       c28                           973
    x36       c36                           855
    x36       c38                           997
    x36       c40                           721
    x36       c47                           566
    x37       obj1                            1
    x37       c1                            447
    x37       c14                           813
    x37       c55                           375
    x37       c68                           672
    x38       obj1                            1
    x38       c3                            626
    x38       c8                            853
    x38       c10                           246
    x38       c13                           120
    x38       c27                           443
    x38       c32                           417
    x38       c35                           432
    x38       c37                           483
    x38       c44                           698
    x38       c45                           609
    x38       c50                           658
    x38       c52                           415
    x38       c65                           317
    x38       c69                           553
    x39       obj1                            1
    x39       c2                            432
    x39       c57                           698
    x39       c60                           458
    x40       obj1                            1
    x40       c10                           307
    x40       c18                           849
    x40       c20                           488
    x40       c22                           154
    x40       c41                           781
    x40       c46                           709
    x40       c48                           329
    x40       c57                           278
    x41       obj1                            1
    x41       c31                           889
    x41       c34                           175
    x41       c36                           723
    x42       obj1                            1
    x42       c2                            192
    x42       c8                            857
    x42       c21                           759
    x42       c30                           375
    x42       c43                           933
    x42       c46                           565
    x42       c64                           166
    x43       obj1                            1
    x43       c24                           784
    x43       c36                           840
    x43       c37                           756
    x43       c38                           782
    x43       c50                           231
    x43       c55                           840
    x43       c66                           625
    x43       c68                           602
    x44       obj1                            1
    x44       c29                           220
    x44       c30                           374
    x44       c35                           780
    x44       c59                           283
    x45       obj1                            1
    x45       c4                            873
    x45       c61                           401
    x46       obj1                            1
    x46       c13                           616
    x46       c35                           818
    x46       c50                           364
    x47       obj1                            1
    x47       c4                            484
    x47       c5                            485
    x47       c8                            192
    x47       c23                           773
    x47       c38                           414
    x47       c44                           925
    x47       c53                           461
    x47       c55                           173
    x47       c57                           185
    x47       c61                           522
    x48       obj1                            1
    x48       c12                           925
    x48       c14                           178
    x48       c23                           885
    x48       c34                           183
    x49       obj1                            1
    x49       c5                            647
    x49       c21                           427
    x49       c23                           426
    x49       c29                           836
    x49       c40                           564
    x49       c46                           394
    x49       c62                           266
    x50       obj1                            1
    x50       c4                            252
    x50       c14                           347
    x50       c27                           684
    x50       c51                           633
    x50       c66                           421
    x51       obj1                            1
    x51       c2                            582
    x51       c3                            220
    x51       c21                           642
    x51       c25                           292
    x51       c36                           327
    x51       c43                           507
    x51       c47                           162
    x51       c49                           186
    x51       c63                           782
    x51       c68                           268
    x52       obj1                            1
    x52       c16                           284
    x52       c17                           579
    x52       c21                           153
    x52       c38                           222
    x52       c45                           718
    x52       c47                           666
    x53       obj1                            1
    x53       c5                            831
    x53       c12                           454
    x53       c23                           435
    x53       c26                           606
    x53       c31                           666
    x53       c32                           835
    x53       c40                           197
    x53       c42                           108
    x53       c47                           663
    x53       c50                           820
    x54       obj1                            1
    x54       c7                            484
    x54       c9                            892
    x54       c10                           284
    x54       c39                           990
    x54       c53                           432
    x55       obj1                            1
    x55       c21                           947
    x55       c40                           523
    x56       obj1                            1
    x56       c1                            465
    x56       c10                           823
    x56       c27                           560
    x56       c28                           754
    x56       c35                           555
    x56       c37                           626
    x56       c48                           185
    x56       c51                           955
    x56       c53                           584
    x56       c59                           691
    x57       obj1                            1
    x57       c18                           676
    x57       c36                           710
    x57       c38                           862
    x57       c60                           640
    x58       obj1                            1
    x58       c21                           230
    x58       c25                           208
    x58       c41                           554
    x58       c45                           265
    x58       c56                           543
    x59       obj1                            1
    x59       c7                            123
    x59       c8                            548
    x59       c9                            250
    x59       c19                           652
    x59       c23                           645
    x59       c32                           733
    x59       c33                           548
    x59       c37                           949
    x59       c47                           854
    x59       c52                           312
    x59       c55                           996
    x59       c60                           324
    x59       c63                           607
    x60       obj1                            1
    x60       c10                           897
    x60       c13                           312
    x60       c16                           173
    x60       c23                           226
    x60       c31                           647
    x60       c35                           510
    x60       c51                           435
    x61       obj1                            1
    x61       c3                            590
    x61       c6                            559
    x61       c68                           688
    x62       obj1                            1
    x62       c9                            549
    x62       c10                           778
    x62       c38                           148
    x62       c42                           476
    x62       c45                           903
    x62       c48                           911
    x63       obj1                            1
    x63       c15                           499
    x63       c22                           334
    x63       c39                           438
    x63       c52                           126
    x63       c63                           498
    x63       c69                           991
    x64       obj1                            1
    x64       c2                            892
    x64       c8                            207
    x64       c9                            495
    x64       c24                           952
    x64       c52                           886
    x64       c57                           355
    x64       c70                           366
    x65       obj1                            1
    x65       c5                            278
    x65       c19                           509
    x65       c25                           969
    x65       c36                           371
    x65       c39                           114
    x65       c58                           258
    x65       c61                           177
    x65       c67                           159
    x65       c68                           297
    x66       obj1                            1
    x66       c1                            637
    x66       c2                            737
    x66       c9                            133
    x66       c19                           398
    x66       c20                           184
    x66       c34                           258
    x66       c40                           616
    x66       c46                           719
    x66       c49                           926
    x66       c57                           893
    x67       obj1                            1
    x67       c6                            246
    x67       c7                            789
    x67       c8                            878
    x67       c31                           639
    x67       c52                           693
    x67       c66                           189
    x68       obj1                            1
    x68       c10                           280
    x68       c21                           690
    x68       c24                           827
    x68       c32                           332
    x68       c38                           516
    x68       c39                           581
    x68       c49                           195
    x68       c67                           178
    x69       obj1                            1
    x69       c14                           212
    x69       c20                           836
    x69       c33                           781
    x69       c47                           341
    x69       c55                           478
    x69       c65                           189
    x69       c69                           217
    x70       obj1                            1
    x70       c1                            339
    x70       c3                            448
    x70       c25                           770
    x70       c27                           120
    x70       c47                           833
    x70       c48                           477
    x70       c52                           309
    x70       c55                           741
    x70       c69                           949
    x70       c70                           843
    MARK0001  'MARKER'                 'INTEND'
RHS
    rhs       c1                           1813
    rhs       c2                           1951
    rhs       c3                           2110
    rhs       c4                            962
    rhs       c5                           1949
    rhs       c6                           1046
    rhs       c7                           1040
    rhs       c8                           2338
    rhs       c9                           1316
    rhs       c10                          2421
    rhs       c11                          1216
    rhs       c12                          1514
    rhs       c13                           749
    rhs       c14                          2543
    rhs       c15                          1403
    rhs       c16                          1008
    rhs       c17                          1872
    rhs       c18                          1551
    rhs       c19                          1952
    rhs       c20                          2833
    rhs       c21                          2700
    rhs       c22                          1237
    rhs       c23                          2660
    rhs       c24                          2225
    rhs       c25                          1977
    rhs       c26                           797
    rhs       c27                          1916
    rhs       c28                          1183
    rhs       c29                          1477
    rhs       c30                           839
    rhs       c31                          3356
    rhs       c32                          1635
    rhs       c33                          1908
    rhs       c34                          2147
    rhs       c35                          2567
    rhs       c36                          2905
    rhs       c37                          2429
    rhs       c38                          3028
    rhs       c39                          1948
    rhs       c40                          1558
    rhs       c41                          1469
    rhs       c42                          1290
    rhs       c43                          1573
    rhs       c44                          3250
    rhs       c45                          1595
    rhs       c46                          2475
    rhs       c47                          3002
    rhs       c48                          1783
    rhs       c49                          1826
    rhs       c50                          2020
    rhs       c51                          2532
    rhs       c52                          2259
    rhs       c53                          1219
    rhs       c54                          1752
    rhs       c55                          3146
    rhs       c56                          1422
    rhs       c57                          2772
    rhs       c58                          1182
    rhs       c59                          1551
    rhs       c60                          1516
    rhs       c61                          2226
    rhs       c62                          1162
    rhs       c63                          1435
    rhs       c64                           979
    rhs       c65                          1028
    rhs       c66                          1773
    rhs       c67                           980
    rhs       c68                          2250
    rhs       c69                          3426
    rhs       c70                          1295
BOUNDS
 LI bnd       x1        0
 LI bnd       x2        0
 LI bnd       x3        0
 LI bnd       x4        0
 LI bnd       x5        0
 LI bnd       x6        0
 LI bnd       x7        0
 LI bnd       x8        0
 LI bnd       x9        0
 LI bnd       x10       0
 LI bnd       x11       0
 LI bnd       x12       0
 LI bnd       x13       0
 LI bnd       x14       0
 LI bnd       x15       0
 LI bnd       x16       0
 LI bnd       x17       0
 LI bnd       x18       0
 LI bnd       x19       0
 LI bnd       x20       0
 LI bnd       x21       0
 LI bnd       x22       0
 LI bnd       x23       0
 LI bnd       x24       0
 LI bnd       x25       0
 LI bnd       x26       0
 LI bnd       x27       0
 LI bnd       x28       0
 LI bnd       x29       0
 LI bnd       x30       0
 LI bnd       x31       0
 LI bnd       x32       0
 LI bnd       x33       0
 LI bnd       x34       0
 LI bnd       x35       0
 LI bnd       x36       0
 LI bnd       x37       0
 LI bnd       x38       0
 LI bnd       x39       0
 LI bnd       x40       0
 LI bnd       x41       0
 LI bnd       x42       0
 LI bnd       x43       0
 LI bnd       x44       0
 LI bnd       x45       0
 LI bnd       x46       0
 LI bnd       x47       0
 LI bnd       x48       0
 LI bnd       x49       0
 LI bnd       x50       0
 LI bnd       x51       0
 LI bnd       x52       0
 LI bnd       x53       0
 LI bnd       x54       0
 LI bnd       x55       0
 LI bnd       x56       0
 LI bnd       x57       0
 LI bnd       x58       0
 LI bnd       x59       0
 LI bnd       x60       0
 LI bnd       x61       0
 LI bnd       x62       0
 LI bnd       x63       0
 LI bnd       x64       0
 LI bnd       x65       0
 LI bnd       x66       0
 LI bnd       x67       0
 LI bnd       x68       0
 LI bnd       x69       0
 LI bnd       x70       0
ENDATA
